(declare-fun v3 () (_ BitVec 9))
(declare-fun v13 ()Bool         )
(declare-fun v20 () (_ BitVec 10))
(declare-fun v23 () (_ BitVec 9))
(assert
(let (($e508 (bvand v23 v3   )))
(let (($e509 (concat false $e508)))
(let (($e510 (bvand $e509 v20)))
              (ite        v13     $e509  $e510)
                                                                                                                                                                                                                                                                                                                                                                                                                                                                                                                                                                                                                                                                                                                                                                                                                                                                                                                                                                                                                                                                                                                                                                                                                                                                                                                                                                                                                                                                                                                                                                                                                                                                                                                                                                                                                                                                                                                                                                                                                                                                                                                                                                                                                                                                                                                                                                                                                                                                                                                                                                                                                                                                                                                                                                                                                                                                                                                                                                                                                                                                                                                                                                                                                                                                                                                                                                                                                                                                                                                                                                                                                                                                                                                                                                                                                                                                          )))                                                                                                                                                                                                                                                                                                                                                                                                                                                                                           )
